projet_m2_wvcp/original_wvcp_dzn/r20.clq.dzn
cliques=[{79,90,139,57,126,47,205,67,178,11,104,0,23,153,114},{3,6,2,8,10,4,7,5,0,9,1},{3,6,2,8,10,4,7,5,0,9,1},{3,117,60,129,181,92,70,37,13,82,155,167,196},{3,6,2,8,10,4,7,5,0,9,1},{130,94,83,119,144,15,5,109,49,168,183,156,198,27},{185,6,73,51,157,96,199,131,145,17,40},{75,187,62,209,147,7,133,41,85,159,30,98},{3,6,2,8,10,4,7,5,0,9,1},{3,6,2,8,10,4,7,5,0,9,1},{3,6,2,8,10,4,7,5,0,9,1},{79,90,139,57,126,47,205,67,178,11,104,0,23,153,114},{128,2,68,48,206,36,12,166,106,141,80,25},{3,117,60,129,181,92,70,37,13,82,155,167,196},{182,93,71,14,4,197,108,143,118,38},{130,94,83,119,144,15,5,109,49,168,183,156,198,27},{18,21,14,15,12,11,20,22,13,19,17,16},{185,6,73,51,157,96,199,131,145,17,40},{121,18,170,29,74,186,97,132,158,146,208,52,61},{202,190,44,161,149,173,64,32,124,101,19,212},{54,150,102,191,136,213,77,45,20,33,162,203,87,174},{18,21,14,15,12,11,20,22,13,19,17,16},{46,177,216,152,66,56,34,164,113,138,22,89,193,204},{79,90,139,57,126,47,205,67,178,11,104,0,23,153,114},{31,26,29,34,32,30,33,25,24,23,27,28},{128,2,68,48,206,36,12,166,106,141,80,25},{154,26,91,107,180,207,142,195,81,59,116,69},{130,94,83,119,144,15,5,109,49,168,183,156,198,27},{31,26,29,34,32,30,33,25,24,23,27,28},{121,18,170,29,74,186,97,132,158,146,208,52,61},{75,187,62,209,147,7,133,41,85,159,30,98},{31,53,63,110,148,201,211,123,172,43,100,135,189,76},{202,190,44,161,149,173,64,32,124,101,19,212},{54,150,102,191,136,213,77,45,20,33,162,203,87,174},{46,177,216,152,66,56,34,164,113,138,22,89,193,204},{46,42,44,39,41,36,45,37,35,43,38,40},{46,42,44,39,41,36,45,37,35,43,38,40},{3,117,60,129,181,92,70,37,13,82,155,167,196},{46,42,44,39,41,36,45,37,35,43,38,40},{46,42,44,39,41,36,45,37,35,43,38,40},{185,6,73,51,157,96,199,131,145,17,40},{75,187,62,209,147,7,133,41,85,159,30,98},{46,42,44,39,41,36,45,37,35,43,38,40},{31,53,63,110,148,201,211,123,172,43,100,135,189,76},{202,190,44,161,149,173,64,32,124,101,19,212},{54,150,102,191,136,213,77,45,20,33,162,203,87,174},{46,177,216,152,66,56,34,164,113,138,22,89,193,204},{79,90,139,57,126,47,205,67,178,11,104,0,23,153,114},{54,53,51,50,55,47,56,48,49,52},{130,94,83,119,144,15,5,109,49,168,183,156,198,27},{54,53,51,50,55,47,56,48,49,52},{185,6,73,51,157,96,199,131,145,17,40},{121,18,170,29,74,186,97,132,158,146,208,52,61},{31,53,63,110,148,201,211,123,172,43,100,135,189,76},{54,150,102,191,136,213,77,45,20,33,162,203,87,174},{54,53,51,50,55,47,56,48,49,52},{46,177,216,152,66,56,34,164,113,138,22,89,193,204},{79,90,139,57,126,47,205,67,178,11,104,0,23,153,114},{63,62,66,57,60,58,64,65,59,61},{154,26,91,107,180,207,142,195,81,59,116,69},{3,117,60,129,181,92,70,37,13,82,155,167,196},{121,18,170,29,74,186,97,132,158,146,208,52,61},{75,187,62,209,147,7,133,41,85,159,30,98},{31,53,63,110,148,201,211,123,172,43,100,135,189,76},{202,190,44,161,149,173,64,32,124,101,19,212},{63,62,66,57,60,58,64,65,59,61},{46,177,216,152,66,56,34,164,113,138,22,89,193,204},{79,90,139,57,126,47,205,67,178,11,104,0,23,153,114},{128,2,68,48,206,36,12,166,106,141,80,25},{154,26,91,107,180,207,142,195,81,59,116,69},{3,117,60,129,181,92,70,37,13,82,155,167,196},{75,71,73,74,68,67,77,70,78,72,76,69},{75,71,73,74,68,67,77,70,78,72,76,69},{185,6,73,51,157,96,199,131,145,17,40},{121,18,170,29,74,186,97,132,158,146,208,52,61},{75,187,62,209,147,7,133,41,85,159,30,98},{31,53,63,110,148,201,211,123,172,43,100,135,189,76},{54,150,102,191,136,213,77,45,20,33,162,203,87,174},{75,71,73,74,68,67,77,70,78,72,76,69},{79,90,139,57,126,47,205,67,178,11,104,0,23,153,114},{128,2,68,48,206,36,12,166,106,141,80,25},{154,26,91,107,180,207,142,195,81,59,116,69},{3,117,60,129,181,92,70,37,13,82,155,167,196},{130,94,83,119,144,15,5,109,49,168,183,156,198,27},{79,84,83,85,88,81,82,80,89,86,87},{75,187,62,209,147,7,133,41,85,159,30,98},{42,160,8,134,99,210,122,200,188,86,171},{54,150,102,191,136,213,77,45,20,33,162,203,87,174},{192,151,137,103,175,111,88,78,214,9,163},{46,177,216,152,66,56,34,164,113,138,22,89,193,204},{102,93,91,90,94,103,96,97,92,99,101,100,95,98},{102,93,91,90,94,103,96,97,92,99,101,100,95,98},{102,93,91,90,94,103,96,97,92,99,101,100,95,98},{102,93,91,90,94,103,96,97,92,99,101,100,95,98},{102,93,91,90,94,103,96,97,92,99,101,100,95,98},{102,93,91,90,94,103,96,97,92,99,101,100,95,98},{102,93,91,90,94,103,96,97,92,99,101,100,95,98},{102,93,91,90,94,103,96,97,92,99,101,100,95,98},{102,93,91,90,94,103,96,97,92,99,101,100,95,98},{102,93,91,90,94,103,96,97,92,99,101,100,95,98},{102,93,91,90,94,103,96,97,92,99,101,100,95,98},{102,93,91,90,94,103,96,97,92,99,101,100,95,98},{102,93,91,90,94,103,96,97,92,99,101,100,95,98},{102,93,91,90,94,103,96,97,92,99,101,100,95,98},{79,90,139,57,126,47,205,67,178,11,104,0,23,153,114},{110,107,112,111,108,105,109,113,106,104},{128,2,68,48,206,36,12,166,106,141,80,25},{154,26,91,107,180,207,142,195,81,59,116,69},{182,93,71,14,4,197,108,143,118,38},{130,94,83,119,144,15,5,109,49,168,183,156,198,27},{31,53,63,110,148,201,211,123,172,43,100,135,189,76},{192,151,137,103,175,111,88,78,214,9,163},{110,107,112,111,108,105,109,113,106,104},{46,177,216,152,66,56,34,164,113,138,22,89,193,204},{79,90,139,57,126,47,205,67,178,11,104,0,23,153,114},{115,121,125,117,119,120,122,124,123,118,116,114},{154,26,91,107,180,207,142,195,81,59,116,69},{3,117,60,129,181,92,70,37,13,82,155,167,196},{115,121,125,117,119,120,122,124,123,118,116,114},{130,94,83,119,144,15,5,109,49,168,183,156,198,27},{115,121,125,117,119,120,122,124,123,118,116,114},{121,18,170,29,74,186,97,132,158,146,208,52,61},{115,121,125,117,119,120,122,124,123,118,116,114},{31,53,63,110,148,201,211,123,172,43,100,135,189,76},{202,190,44,161,149,173,64,32,124,101,19,212},{115,121,125,117,119,120,122,124,123,118,116,114},{130,128,127,137,126,129,136,134,132,133,131,138,135},{130,128,127,137,126,129,136,134,132,133,131,138,135},{130,128,127,137,126,129,136,134,132,133,131,138,135},{130,128,127,137,126,129,136,134,132,133,131,138,135},{130,128,127,137,126,129,136,134,132,133,131,138,135},{130,128,127,137,126,129,136,134,132,133,131,138,135},{130,128,127,137,126,129,136,134,132,133,131,138,135},{130,128,127,137,126,129,136,134,132,133,131,138,135},{130,128,127,137,126,129,136,134,132,133,131,138,135},{130,128,127,137,126,129,136,134,132,133,131,138,135},{130,128,127,137,126,129,136,134,132,133,131,138,135},{130,128,127,137,126,129,136,134,132,133,131,138,135},{130,128,127,137,126,129,136,134,132,133,131,138,135},{150,149,152,139,151,142,148,147,144,146,145,141,143,140},{150,149,152,139,151,142,148,147,144,146,145,141,143,140},{150,149,152,139,151,142,148,147,144,146,145,141,143,140},{150,149,152,139,151,142,148,147,144,146,145,141,143,140},{150,149,152,139,151,142,148,147,144,146,145,141,143,140},{150,149,152,139,151,142,148,147,144,146,145,141,143,140},{150,149,152,139,151,142,148,147,144,146,145,141,143,140},{150,149,152,139,151,142,148,147,144,146,145,141,143,140},{150,149,152,139,151,142,148,147,144,146,145,141,143,140},{150,149,152,139,151,142,148,147,144,146,145,141,143,140},{150,149,152,139,151,142,148,147,144,146,145,141,143,140},{150,149,152,139,151,142,148,147,144,146,145,141,143,140},{150,149,152,139,151,142,148,147,144,146,145,141,143,140},{150,149,152,139,151,142,148,147,144,146,145,141,143,140},{79,90,139,57,126,47,205,67,178,11,104,0,23,153,114},{154,26,91,107,180,207,142,195,81,59,116,69},{3,117,60,129,181,92,70,37,13,82,155,167,196},{130,94,83,119,144,15,5,109,49,168,183,156,198,27},{185,6,73,51,157,96,199,131,145,17,40},{121,18,170,29,74,186,97,132,158,146,208,52,61},{75,187,62,209,147,7,133,41,85,159,30,98},{154,160,161,157,164,158,159,156,155,163,162,153},{202,190,44,161,149,173,64,32,124,101,19,212},{54,150,102,191,136,213,77,45,20,33,162,203,87,174},{154,160,161,157,164,158,159,156,155,163,162,153},{46,177,216,152,66,56,34,164,113,138,22,89,193,204},{177,170,169,175,173,176,166,165,168,172,171,167,174},{177,170,169,175,173,176,166,165,168,172,171,167,174},{3,117,60,129,181,92,70,37,13,82,155,167,196},{130,94,83,119,144,15,5,109,49,168,183,156,198,27},{177,170,169,175,173,176,166,165,168,172,171,167,174},{121,18,170,29,74,186,97,132,158,146,208,52,61},{177,170,169,175,173,176,166,165,168,172,171,167,174},{31,53,63,110,148,201,211,123,172,43,100,135,189,76},{202,190,44,161,149,173,64,32,124,101,19,212},{54,150,102,191,136,213,77,45,20,33,162,203,87,174},{177,170,169,175,173,176,166,165,168,172,171,167,174},{177,170,169,175,173,176,166,165,168,172,171,167,174},{46,177,216,152,66,56,34,164,113,138,22,89,193,204},{182,185,190,187,192,180,191,186,181,184,178,183,188,189,193,179},{182,185,190,187,192,180,191,186,181,184,178,183,188,189,193,179},{182,185,190,187,192,180,191,186,181,184,178,183,188,189,193,179},{182,185,190,187,192,180,191,186,181,184,178,183,188,189,193,179},{182,185,190,187,192,180,191,186,181,184,178,183,188,189,193,179},{182,185,190,187,192,180,191,186,181,184,178,183,188,189,193,179},{182,185,190,187,192,180,191,186,181,184,178,183,188,189,193,179},{182,185,190,187,192,180,191,186,181,184,178,183,188,189,193,179},{182,185,190,187,192,180,191,186,181,184,178,183,188,189,193,179},{182,185,190,187,192,180,191,186,181,184,178,183,188,189,193,179},{182,185,190,187,192,180,191,186,181,184,178,183,188,189,193,179},{182,185,190,187,192,180,191,186,181,184,178,183,188,189,193,179},{182,185,190,187,192,180,191,186,181,184,178,183,188,189,193,179},{182,185,190,187,192,180,191,186,181,184,178,183,188,189,193,179},{182,185,190,187,192,180,191,186,181,184,178,183,188,189,193,179},{182,185,190,187,192,180,191,186,181,184,178,183,188,189,193,179},{115,127,194,58,105,165,35,24,1,179,140},{154,26,91,107,180,207,142,195,81,59,116,69},{3,117,60,129,181,92,70,37,13,82,155,167,196},{182,93,71,14,4,197,108,143,118,38},{130,94,83,119,144,15,5,109,49,168,183,156,198,27},{185,6,73,51,157,96,199,131,145,17,40},{42,160,8,134,99,210,122,200,188,86,171},{31,53,63,110,148,201,211,123,172,43,100,135,189,76},{202,190,44,161,149,173,64,32,124,101,19,212},{54,150,102,191,136,213,77,45,20,33,162,203,87,174},{46,177,216,152,66,56,34,164,113,138,22,89,193,204},{79,90,139,57,126,47,205,67,178,11,104,0,23,153,114},{216,215,209,207,205,206,213,208,210,211,214,212},{154,26,91,107,180,207,142,195,81,59,116,69},{121,18,170,29,74,186,97,132,158,146,208,52,61},{75,187,62,209,147,7,133,41,85,159,30,98},{216,215,209,207,205,206,213,208,210,211,214,212},{31,53,63,110,148,201,211,123,172,43,100,135,189,76},{202,190,44,161,149,173,64,32,124,101,19,212},{54,150,102,191,136,213,77,45,20,33,162,203,87,174},{216,215,209,207,205,206,213,208,210,211,214,212},{216,215,209,207,205,206,213,208,210,211,214,212},{46,177,216,152,66,56,34,164,113,138,22,89,193,204}];
nr_cliques=217;
