projet_m2_wvcp/original_wvcp_dzn/r20.dzn
name="r20";
nr_vertices=217;
nr_edges=2447;
neighborhoods=[{1,2,3,4,5,6,7,8,9,10,11,23,47,57,67,79,90,104,114,126,139,153,178,205},{0,2,3,4,5,6,7,8,9,10,24,35,58,105,115,127,140,165,179,194},{0,1,3,4,5,6,7,8,9,10,12,25,36,48,68,80,106,128,141,166,206},{0,1,2,4,5,6,7,8,9,10,13,37,60,70,82,92,117,129,155,167,181,196},{0,1,2,3,5,6,7,8,9,10,14,38,71,93,108,118,143,182,197},{0,1,2,3,4,6,7,8,9,10,15,27,49,83,94,109,119,130,144,156,168,183,198},{0,1,2,3,4,5,7,8,9,10,17,40,51,73,96,131,145,157,185,199},{0,1,2,3,4,5,6,8,9,10,30,41,62,75,85,98,133,147,159,187,209},{0,1,2,3,4,5,6,7,9,10,42,86,99,122,134,160,171,188,200,210},{0,1,2,3,4,5,6,7,8,10,78,88,103,111,137,151,163,175,192,214},{0,1,2,3,4,5,6,7,8,9,21,55,65,112,125,176,215},{0,12,13,14,15,16,17,18,19,20,21,22,23,47,57,67,79,90,104,114,126,139,153,178,205},{2,11,13,14,15,16,17,18,19,20,21,22,25,36,48,68,80,106,128,141,166,206},{3,11,12,14,15,16,17,18,19,20,21,22,37,60,70,82,92,117,129,155,167,181,196},{4,11,12,13,15,16,17,18,19,20,21,22,38,71,93,108,118,143,182,197},{5,11,12,13,14,16,17,18,19,20,21,22,27,49,83,94,109,119,130,144,156,168,183,198},{11,12,13,14,15,17,18,19,20,21,22,28,39,50,72,84,95,120,169,184},{6,11,12,13,14,15,16,18,19,20,21,22,40,51,73,96,131,145,157,185,199},{11,12,13,14,15,16,17,19,20,21,22,29,52,61,74,97,121,132,146,158,170,186,208},{11,12,13,14,15,16,17,18,20,21,22,32,44,64,101,124,149,161,173,190,202,212},{11,12,13,14,15,16,17,18,19,21,22,33,45,54,77,87,102,136,150,162,174,191,203,213},{10,11,12,13,14,15,16,17,18,19,20,22,55,65,112,125,176,215},{11,12,13,14,15,16,17,18,19,20,21,34,46,56,66,89,113,138,152,164,177,193,204,216},{0,11,24,25,26,27,28,29,30,31,32,33,34,47,57,67,79,90,104,114,126,139,153,178,205},{1,23,25,26,27,28,29,30,31,32,33,34,35,58,105,115,127,140,165,179,194},{2,12,23,24,26,27,28,29,30,31,32,33,34,36,48,68,80,106,128,141,166,206},{23,24,25,27,28,29,30,31,32,33,34,59,69,81,91,107,116,142,154,180,195,207},{5,15,23,24,25,26,28,29,30,31,32,33,34,49,83,94,109,119,130,144,156,168,183,198},{16,23,24,25,26,27,29,30,31,32,33,34,39,50,72,84,95,120,169,184},{18,23,24,25,26,27,28,30,31,32,33,34,52,61,74,97,121,132,146,158,170,186,208},{7,23,24,25,26,27,28,29,31,32,33,34,41,62,75,85,98,133,147,159,187,209},{23,24,25,26,27,28,29,30,32,33,34,43,53,63,76,100,110,123,135,148,172,189,201,211},{19,23,24,25,26,27,28,29,30,31,33,34,44,64,101,124,149,161,173,190,202,212},{20,23,24,25,26,27,28,29,30,31,32,34,45,54,77,87,102,136,150,162,174,191,203,213},{22,23,24,25,26,27,28,29,30,31,32,33,46,56,66,89,113,138,152,164,177,193,204,216},{1,24,36,37,38,39,40,41,42,43,44,45,46,58,105,115,127,140,165,179,194},{2,12,25,35,37,38,39,40,41,42,43,44,45,46,48,68,80,106,128,141,166,206},{3,13,35,36,38,39,40,41,42,43,44,45,46,60,70,82,92,117,129,155,167,181,196},{4,14,35,36,37,39,40,41,42,43,44,45,46,71,93,108,118,143,182,197},{16,28,35,36,37,38,40,41,42,43,44,45,46,50,72,84,95,120,169,184},{6,17,35,36,37,38,39,41,42,43,44,45,46,51,73,96,131,145,157,185,199},{7,30,35,36,37,38,39,40,42,43,44,45,46,62,75,85,98,133,147,159,187,209},{8,35,36,37,38,39,40,41,43,44,45,46,86,99,122,134,160,171,188,200,210},{31,35,36,37,38,39,40,41,42,44,45,46,53,63,76,100,110,123,135,148,172,189,201,211},{19,32,35,36,37,38,39,40,41,42,43,45,46,64,101,124,149,161,173,190,202,212},{20,33,35,36,37,38,39,40,41,42,43,44,46,54,77,87,102,136,150,162,174,191,203,213},{22,34,35,36,37,38,39,40,41,42,43,44,45,56,66,89,113,138,152,164,177,193,204,216},{0,11,23,48,49,50,51,52,53,54,55,56,57,67,79,90,104,114,126,139,153,178,205},{2,12,25,36,47,49,50,51,52,53,54,55,56,68,80,106,128,141,166,206},{5,15,27,47,48,50,51,52,53,54,55,56,83,94,109,119,130,144,156,168,183,198},{16,28,39,47,48,49,51,52,53,54,55,56,72,84,95,120,169,184},{6,17,40,47,48,49,50,52,53,54,55,56,73,96,131,145,157,185,199},{18,29,47,48,49,50,51,53,54,55,56,61,74,97,121,132,146,158,170,186,208},{31,43,47,48,49,50,51,52,54,55,56,63,76,100,110,123,135,148,172,189,201,211},{20,33,45,47,48,49,50,51,52,53,55,56,77,87,102,136,150,162,174,191,203,213},{10,21,47,48,49,50,51,52,53,54,56,65,112,125,176,215},{22,34,46,47,48,49,50,51,52,53,54,55,66,89,113,138,152,164,177,193,204,216},{0,11,23,47,58,59,60,61,62,63,64,65,66,67,79,90,104,114,126,139,153,178,205},{1,24,35,57,59,60,61,62,63,64,65,66,105,115,127,140,165,179,194},{26,57,58,60,61,62,63,64,65,66,69,81,91,107,116,142,154,180,195,207},{3,13,37,57,58,59,61,62,63,64,65,66,70,82,92,117,129,155,167,181,196},{18,29,52,57,58,59,60,62,63,64,65,66,74,97,121,132,146,158,170,186,208},{7,30,41,57,58,59,60,61,63,64,65,66,75,85,98,133,147,159,187,209},{31,43,53,57,58,59,60,61,62,64,65,66,76,100,110,123,135,148,172,189,201,211},{19,32,44,57,58,59,60,61,62,63,65,66,101,124,149,161,173,190,202,212},{10,21,55,57,58,59,60,61,62,63,64,66,112,125,176,215},{22,34,46,56,57,58,59,60,61,62,63,64,65,89,113,138,152,164,177,193,204,216},{0,11,23,47,57,68,69,70,71,72,73,74,75,76,77,78,79,90,104,114,126,139,153,178,205},{2,12,25,36,48,67,69,70,71,72,73,74,75,76,77,78,80,106,128,141,166,206},{26,59,67,68,70,71,72,73,74,75,76,77,78,81,91,107,116,142,154,180,195,207},{3,13,37,60,67,68,69,71,72,73,74,75,76,77,78,82,92,117,129,155,167,181,196},{4,14,38,67,68,69,70,72,73,74,75,76,77,78,93,108,118,143,182,197},{16,28,39,50,67,68,69,70,71,73,74,75,76,77,78,84,95,120,169,184},{6,17,40,51,67,68,69,70,71,72,74,75,76,77,78,96,131,145,157,185,199},{18,29,52,61,67,68,69,70,71,72,73,75,76,77,78,97,121,132,146,158,170,186,208},{7,30,41,62,67,68,69,70,71,72,73,74,76,77,78,85,98,133,147,159,187,209},{31,43,53,63,67,68,69,70,71,72,73,74,75,77,78,100,110,123,135,148,172,189,201,211},{20,33,45,54,67,68,69,70,71,72,73,74,75,76,78,87,102,136,150,162,174,191,203,213},{9,67,68,69,70,71,72,73,74,75,76,77,88,103,111,137,151,163,175,192,214},{0,11,23,47,57,67,80,81,82,83,84,85,86,87,88,89,90,104,114,126,139,153,178,205},{2,12,25,36,48,68,79,81,82,83,84,85,86,87,88,89,106,128,141,166,206},{26,59,69,79,80,82,83,84,85,86,87,88,89,91,107,116,142,154,180,195,207},{3,13,37,60,70,79,80,81,83,84,85,86,87,88,89,92,117,129,155,167,181,196},{5,15,27,49,79,80,81,82,84,85,86,87,88,89,94,109,119,130,144,156,168,183,198},{16,28,39,50,72,79,80,81,82,83,85,86,87,88,89,95,120,169,184},{7,30,41,62,75,79,80,81,82,83,84,86,87,88,89,98,133,147,159,187,209},{8,42,79,80,81,82,83,84,85,87,88,89,99,122,134,160,171,188,200,210},{20,33,45,54,77,79,80,81,82,83,84,85,86,88,89,102,136,150,162,174,191,203,213},{9,78,79,80,81,82,83,84,85,86,87,89,103,111,137,151,163,175,192,214},{22,34,46,56,66,79,80,81,82,83,84,85,86,87,88,113,138,152,164,177,193,204,216},{0,11,23,47,57,67,79,91,92,93,94,95,96,97,98,99,100,101,102,103,104,114,126,139,153,178,205},{26,59,69,81,90,92,93,94,95,96,97,98,99,100,101,102,103,107,116,142,154,180,195,207},{3,13,37,60,70,82,90,91,93,94,95,96,97,98,99,100,101,102,103,117,129,155,167,181,196},{4,14,38,71,90,91,92,94,95,96,97,98,99,100,101,102,103,108,118,143,182,197},{5,15,27,49,83,90,91,92,93,95,96,97,98,99,100,101,102,103,109,119,130,144,156,168,183,198},{16,28,39,50,72,84,90,91,92,93,94,96,97,98,99,100,101,102,103,120,169,184},{6,17,40,51,73,90,91,92,93,94,95,97,98,99,100,101,102,103,131,145,157,185,199},{18,29,52,61,74,90,91,92,93,94,95,96,98,99,100,101,102,103,121,132,146,158,170,186,208},{7,30,41,62,75,85,90,91,92,93,94,95,96,97,99,100,101,102,103,133,147,159,187,209},{8,42,86,90,91,92,93,94,95,96,97,98,100,101,102,103,122,134,160,171,188,200,210},{31,43,53,63,76,90,91,92,93,94,95,96,97,98,99,101,102,103,110,123,135,148,172,189,201,211},{19,32,44,64,90,91,92,93,94,95,96,97,98,99,100,102,103,124,149,161,173,190,202,212},{20,33,45,54,77,87,90,91,92,93,94,95,96,97,98,99,100,101,103,136,150,162,174,191,203,213},{9,78,88,90,91,92,93,94,95,96,97,98,99,100,101,102,111,137,151,163,175,192,214},{0,11,23,47,57,67,79,90,105,106,107,108,109,110,111,112,113,114,126,139,153,178,205},{1,24,35,58,104,106,107,108,109,110,111,112,113,115,127,140,165,179,194},{2,12,25,36,48,68,80,104,105,107,108,109,110,111,112,113,128,141,166,206},{26,59,69,81,91,104,105,106,108,109,110,111,112,113,116,142,154,180,195,207},{4,14,38,71,93,104,105,106,107,109,110,111,112,113,118,143,182,197},{5,15,27,49,83,94,104,105,106,107,108,110,111,112,113,119,130,144,156,168,183,198},{31,43,53,63,76,100,104,105,106,107,108,109,111,112,113,123,135,148,172,189,201,211},{9,78,88,103,104,105,106,107,108,109,110,112,113,137,151,163,175,192,214},{10,21,55,65,104,105,106,107,108,109,110,111,113,125,176,215},{22,34,46,56,66,89,104,105,106,107,108,109,110,111,112,138,152,164,177,193,204,216},{0,11,23,47,57,67,79,90,104,115,116,117,118,119,120,121,122,123,124,125,126,139,153,178,205},{1,24,35,58,105,114,116,117,118,119,120,121,122,123,124,125,127,140,165,179,194},{26,59,69,81,91,107,114,115,117,118,119,120,121,122,123,124,125,142,154,180,195,207},{3,13,37,60,70,82,92,114,115,116,118,119,120,121,122,123,124,125,129,155,167,181,196},{4,14,38,71,93,108,114,115,116,117,119,120,121,122,123,124,125,143,182,197},{5,15,27,49,83,94,109,114,115,116,117,118,120,121,122,123,124,125,130,144,156,168,183,198},{16,28,39,50,72,84,95,114,115,116,117,118,119,121,122,123,124,125,169,184},{18,29,52,61,74,97,114,115,116,117,118,119,120,122,123,124,125,132,146,158,170,186,208},{8,42,86,99,114,115,116,117,118,119,120,121,123,124,125,134,160,171,188,200,210},{31,43,53,63,76,100,110,114,115,116,117,118,119,120,121,122,124,125,135,148,172,189,201,211},{19,32,44,64,101,114,115,116,117,118,119,120,121,122,123,125,149,161,173,190,202,212},{10,21,55,65,112,114,115,116,117,118,119,120,121,122,123,124,176,215},{0,11,23,47,57,67,79,90,104,114,127,128,129,130,131,132,133,134,135,136,137,138,139,153,178,205},{1,24,35,58,105,115,126,128,129,130,131,132,133,134,135,136,137,138,140,165,179,194},{2,12,25,36,48,68,80,106,126,127,129,130,131,132,133,134,135,136,137,138,141,166,206},{3,13,37,60,70,82,92,117,126,127,128,130,131,132,133,134,135,136,137,138,155,167,181,196},{5,15,27,49,83,94,109,119,126,127,128,129,131,132,133,134,135,136,137,138,144,156,168,183,198},{6,17,40,51,73,96,126,127,128,129,130,132,133,134,135,136,137,138,145,157,185,199},{18,29,52,61,74,97,121,126,127,128,129,130,131,133,134,135,136,137,138,146,158,170,186,208},{7,30,41,62,75,85,98,126,127,128,129,130,131,132,134,135,136,137,138,147,159,187,209},{8,42,86,99,122,126,127,128,129,130,131,132,133,135,136,137,138,160,171,188,200,210},{31,43,53,63,76,100,110,123,126,127,128,129,130,131,132,133,134,136,137,138,148,172,189,201,211},{20,33,45,54,77,87,102,126,127,128,129,130,131,132,133,134,135,137,138,150,162,174,191,203,213},{9,78,88,103,111,126,127,128,129,130,131,132,133,134,135,136,138,151,163,175,192,214},{22,34,46,56,66,89,113,126,127,128,129,130,131,132,133,134,135,136,137,152,164,177,193,204,216},{0,11,23,47,57,67,79,90,104,114,126,140,141,142,143,144,145,146,147,148,149,150,151,152,153,178,205},{1,24,35,58,105,115,127,139,141,142,143,144,145,146,147,148,149,150,151,152,165,179,194},{2,12,25,36,48,68,80,106,128,139,140,142,143,144,145,146,147,148,149,150,151,152,166,206},{26,59,69,81,91,107,116,139,140,141,143,144,145,146,147,148,149,150,151,152,154,180,195,207},{4,14,38,71,93,108,118,139,140,141,142,144,145,146,147,148,149,150,151,152,182,197},{5,15,27,49,83,94,109,119,130,139,140,141,142,143,145,146,147,148,149,150,151,152,156,168,183,198},{6,17,40,51,73,96,131,139,140,141,142,143,144,146,147,148,149,150,151,152,157,185,199},{18,29,52,61,74,97,121,132,139,140,141,142,143,144,145,147,148,149,150,151,152,158,170,186,208},{7,30,41,62,75,85,98,133,139,140,141,142,143,144,145,146,148,149,150,151,152,159,187,209},{31,43,53,63,76,100,110,123,135,139,140,141,142,143,144,145,146,147,149,150,151,152,172,189,201,211},{19,32,44,64,101,124,139,140,141,142,143,144,145,146,147,148,150,151,152,161,173,190,202,212},{20,33,45,54,77,87,102,136,139,140,141,142,143,144,145,146,147,148,149,151,152,162,174,191,203,213},{9,78,88,103,111,137,139,140,141,142,143,144,145,146,147,148,149,150,152,163,175,192,214},{22,34,46,56,66,89,113,138,139,140,141,142,143,144,145,146,147,148,149,150,151,164,177,193,204,216},{0,11,23,47,57,67,79,90,104,114,126,139,154,155,156,157,158,159,160,161,162,163,164,178,205},{26,59,69,81,91,107,116,142,153,155,156,157,158,159,160,161,162,163,164,180,195,207},{3,13,37,60,70,82,92,117,129,153,154,156,157,158,159,160,161,162,163,164,167,181,196},{5,15,27,49,83,94,109,119,130,144,153,154,155,157,158,159,160,161,162,163,164,168,183,198},{6,17,40,51,73,96,131,145,153,154,155,156,158,159,160,161,162,163,164,185,199},{18,29,52,61,74,97,121,132,146,153,154,155,156,157,159,160,161,162,163,164,170,186,208},{7,30,41,62,75,85,98,133,147,153,154,155,156,157,158,160,161,162,163,164,187,209},{8,42,86,99,122,134,153,154,155,156,157,158,159,161,162,163,164,171,188,200,210},{19,32,44,64,101,124,149,153,154,155,156,157,158,159,160,162,163,164,173,190,202,212},{20,33,45,54,77,87,102,136,150,153,154,155,156,157,158,159,160,161,163,164,174,191,203,213},{9,78,88,103,111,137,151,153,154,155,156,157,158,159,160,161,162,164,175,192,214},{22,34,46,56,66,89,113,138,152,153,154,155,156,157,158,159,160,161,162,163,177,193,204,216},{1,24,35,58,105,115,127,140,166,167,168,169,170,171,172,173,174,175,176,177,179,194},{2,12,25,36,48,68,80,106,128,141,165,167,168,169,170,171,172,173,174,175,176,177,206},{3,13,37,60,70,82,92,117,129,155,165,166,168,169,170,171,172,173,174,175,176,177,181,196},{5,15,27,49,83,94,109,119,130,144,156,165,166,167,169,170,171,172,173,174,175,176,177,183,198},{16,28,39,50,72,84,95,120,165,166,167,168,170,171,172,173,174,175,176,177,184},{18,29,52,61,74,97,121,132,146,158,165,166,167,168,169,171,172,173,174,175,176,177,186,208},{8,42,86,99,122,134,160,165,166,167,168,169,170,172,173,174,175,176,177,188,200,210},{31,43,53,63,76,100,110,123,135,148,165,166,167,168,169,170,171,173,174,175,176,177,189,201,211},{19,32,44,64,101,124,149,161,165,166,167,168,169,170,171,172,174,175,176,177,190,202,212},{20,33,45,54,77,87,102,136,150,162,165,166,167,168,169,170,171,172,173,175,176,177,191,203,213},{9,78,88,103,111,137,151,163,165,166,167,168,169,170,171,172,173,174,176,177,192,214},{10,21,55,65,112,125,165,166,167,168,169,170,171,172,173,174,175,177,215},{22,34,46,56,66,89,113,138,152,164,165,166,167,168,169,170,171,172,173,174,175,176,193,204,216},{0,11,23,47,57,67,79,90,104,114,126,139,153,179,180,181,182,183,184,185,186,187,188,189,190,191,192,193,205},{1,24,35,58,105,115,127,140,165,178,180,181,182,183,184,185,186,187,188,189,190,191,192,193,194},{26,59,69,81,91,107,116,142,154,178,179,181,182,183,184,185,186,187,188,189,190,191,192,193,195,207},{3,13,37,60,70,82,92,117,129,155,167,178,179,180,182,183,184,185,186,187,188,189,190,191,192,193,196},{4,14,38,71,93,108,118,143,178,179,180,181,183,184,185,186,187,188,189,190,191,192,193,197},{5,15,27,49,83,94,109,119,130,144,156,168,178,179,180,181,182,184,185,186,187,188,189,190,191,192,193,198},{16,28,39,50,72,84,95,120,169,178,179,180,181,182,183,185,186,187,188,189,190,191,192,193},{6,17,40,51,73,96,131,145,157,178,179,180,181,182,183,184,186,187,188,189,190,191,192,193,199},{18,29,52,61,74,97,121,132,146,158,170,178,179,180,181,182,183,184,185,187,188,189,190,191,192,193,208},{7,30,41,62,75,85,98,133,147,159,178,179,180,181,182,183,184,185,186,188,189,190,191,192,193,209},{8,42,86,99,122,134,160,171,178,179,180,181,182,183,184,185,186,187,189,190,191,192,193,200,210},{31,43,53,63,76,100,110,123,135,148,172,178,179,180,181,182,183,184,185,186,187,188,190,191,192,193,201,211},{19,32,44,64,101,124,149,161,173,178,179,180,181,182,183,184,185,186,187,188,189,191,192,193,202,212},{20,33,45,54,77,87,102,136,150,162,174,178,179,180,181,182,183,184,185,186,187,188,189,190,192,193,203,213},{9,78,88,103,111,137,151,163,175,178,179,180,181,182,183,184,185,186,187,188,189,190,191,193,214},{22,34,46,56,66,89,113,138,152,164,177,178,179,180,181,182,183,184,185,186,187,188,189,190,191,192,204,216},{1,24,35,58,105,115,127,140,165,179,195,196,197,198,199,200,201,202,203,204},{26,59,69,81,91,107,116,142,154,180,194,196,197,198,199,200,201,202,203,204,207},{3,13,37,60,70,82,92,117,129,155,167,181,194,195,197,198,199,200,201,202,203,204},{4,14,38,71,93,108,118,143,182,194,195,196,198,199,200,201,202,203,204},{5,15,27,49,83,94,109,119,130,144,156,168,183,194,195,196,197,199,200,201,202,203,204},{6,17,40,51,73,96,131,145,157,185,194,195,196,197,198,200,201,202,203,204},{8,42,86,99,122,134,160,171,188,194,195,196,197,198,199,201,202,203,204,210},{31,43,53,63,76,100,110,123,135,148,172,189,194,195,196,197,198,199,200,202,203,204,211},{19,32,44,64,101,124,149,161,173,190,194,195,196,197,198,199,200,201,203,204,212},{20,33,45,54,77,87,102,136,150,162,174,191,194,195,196,197,198,199,200,201,202,204,213},{22,34,46,56,66,89,113,138,152,164,177,193,194,195,196,197,198,199,200,201,202,203,216},{0,11,23,47,57,67,79,90,104,114,126,139,153,178,206,207,208,209,210,211,212,213,214,215,216},{2,12,25,36,48,68,80,106,128,141,166,205,207,208,209,210,211,212,213,214,215,216},{26,59,69,81,91,107,116,142,154,180,195,205,206,208,209,210,211,212,213,214,215,216},{18,29,52,61,74,97,121,132,146,158,170,186,205,206,207,209,210,211,212,213,214,215,216},{7,30,41,62,75,85,98,133,147,159,187,205,206,207,208,210,211,212,213,214,215,216},{8,42,86,99,122,134,160,171,188,200,205,206,207,208,209,211,212,213,214,215,216},{31,43,53,63,76,100,110,123,135,148,172,189,201,205,206,207,208,209,210,212,213,214,215,216},{19,32,44,64,101,124,149,161,173,190,202,205,206,207,208,209,210,211,213,214,215,216},{20,33,45,54,77,87,102,136,150,162,174,191,203,205,206,207,208,209,210,211,212,214,215,216},{9,78,88,103,111,137,151,163,175,192,205,206,207,208,209,210,211,212,213,215,216},{10,21,55,65,112,125,176,205,206,207,208,209,210,211,212,213,214,216},{22,34,46,56,66,89,113,138,152,164,177,193,204,205,206,207,208,209,210,211,212,213,214,215}];
weights=[322,248,626,683,516,424,636,510,543,288,538,367,412,323,541,445,201,275,684,305,359,558,344,252,275,278,640,250,219,557,341,680,373,324,417,342,432,350,300,493,272,460,676,307,643,366,701,526,475,347,570,607,322,667,697,559,501,587,457,282,576,212,608,664,390,290,606,438,524,206,373,625,268,618,553,630,228,400,349,662,303,324,312,560,644,451,258,257,373,282,605,622,461,633,570,217,548,515,207,393,294,330,642,561,333,432,403,619,446,412,619,454,568,404,217,704,264,619,303,518,415,685,362,316,339,674,540,634,640,521,672,449,510,482,511,286,520,585,387,595,224,353,531,351,451,368,396,510,523,638,659,585,614,244,669,294,303,557,412,357,659,639,260,261,415,370,403,250,326,548,580,251,309,477,240,515,462,671,380,235,600,501,702,311,478,645,538,628,298,283,644,592,613,251,613,390,233,494,253,494,334,349,656,260,202,505,440,553,379,583,369,339,219,433,303,625,663];
